(set-option :print-success true)
(set-logic QF_ABV)
(set-info :source |
Bit-vector benchmarks from Dawson Engler's tool contributed by Vijay Ganesh
(vganesh@stanford.edu).  Translated into SMT-LIB format by Clark Barrett using
CVC3.  |)
(set-info :smt-lib-version 2.0)
(set-info :category "industrial")
(set-info :status sat)
(declare-fun sb () (Array (_ BitVec 32) (_ BitVec 8)))
(declare-fun malloced_88 () (Array (_ BitVec 32) (_ BitVec 8)))
(assert (= (select malloced_88 (_ bv0 32)) (_ bv172 8)))
(assert (= (select malloced_88 (_ bv1 32)) (_ bv219 8)))
(assert (= (select malloced_88 (_ bv2 32)) (_ bv91 8)))
(assert (= (select malloced_88 (_ bv3 32)) (_ bv162 8)))
(assert (= (select malloced_88 (_ bv4 32)) (_ bv32 8)))
(assert (= (select malloced_88 (_ bv5 32)) (_ bv118 8)))
(assert (= (select malloced_88 (_ bv6 32)) (_ bv233 8)))
(assert (= (select malloced_88 (_ bv7 32)) (_ bv141 8)))
(assert (= (select malloced_88 (_ bv8 32)) (_ bv0 8)))
(assert (= (select malloced_88 (_ bv9 32)) (_ bv1 8)))
(assert (= (select malloced_88 (_ bv10 32)) (_ bv0 8)))
(assert (= (select malloced_88 (_ bv11 32)) (_ bv0 8)))
(assert (= (select malloced_88 (_ bv12 32)) (_ bv0 8)))
(assert (= (select malloced_88 (_ bv13 32)) (_ bv4 8)))
(assert (= (select malloced_88 (_ bv14 32)) (_ bv0 8)))
(assert (= (select malloced_88 (_ bv15 32)) (_ bv0 8)))
(assert (= (select malloced_88 (_ bv16 32)) (_ bv0 8)))
(assert (= (select malloced_88 (_ bv17 32)) (_ bv0 8)))
(assert (= (select malloced_88 (_ bv18 32)) (_ bv0 8)))
(assert (= (select malloced_88 (_ bv19 32)) (_ bv0 8)))
(assert (= (select malloced_88 (_ bv20 32)) (_ bv255 8)))
(assert (= (select malloced_88 (_ bv21 32)) (_ bv255 8)))
(assert (= (select malloced_88 (_ bv22 32)) (_ bv255 8)))
(assert (= (select malloced_88 (_ bv23 32)) (_ bv127 8)))
(assert (= (select malloced_88 (_ bv24 32)) (_ bv0 8)))
(assert (= (select malloced_88 (_ bv25 32)) (_ bv0 8)))
(assert (= (select malloced_88 (_ bv26 32)) (_ bv0 8)))
(assert (= (select malloced_88 (_ bv27 32)) (_ bv0 8)))
(assert (= (select malloced_88 (_ bv28 32)) (_ bv68 8)))
(assert (= (select malloced_88 (_ bv29 32)) (_ bv231 8)))
(assert (= (select malloced_88 (_ bv30 32)) (_ bv91 8)))
(assert (= (select malloced_88 (_ bv31 32)) (_ bv162 8)))
(assert (= (select malloced_88 (_ bv32 32)) (_ bv0 8)))
(assert (= (select malloced_88 (_ bv33 32)) (_ bv0 8)))
(assert (= (select malloced_88 (_ bv34 32)) (_ bv0 8)))
(assert (= (select malloced_88 (_ bv35 32)) (_ bv0 8)))
(assert (= (select malloced_88 (_ bv36 32)) (_ bv0 8)))
(assert (= (select malloced_88 (_ bv37 32)) (_ bv0 8)))
(assert (= (select malloced_88 (_ bv38 32)) (_ bv0 8)))
(assert (= (select malloced_88 (_ bv39 32)) (_ bv0 8)))
(assert (= (select malloced_88 (_ bv40 32)) (_ bv16 8)))
(assert (= (select malloced_88 (_ bv41 32)) (_ bv4 8)))
(assert (= (select malloced_88 (_ bv42 32)) (_ bv0 8)))
(assert (= (select malloced_88 (_ bv43 32)) (_ bv0 8)))
(assert (= (select malloced_88 (_ bv44 32)) (_ bv0 8)))
(assert (= (select malloced_88 (_ bv45 32)) (_ bv0 8)))
(assert (= (select malloced_88 (_ bv46 32)) (_ bv0 8)))
(assert (= (select malloced_88 (_ bv47 32)) (_ bv0 8)))
(assert (= (select malloced_88 (_ bv48 32)) (_ bv0 8)))
(assert (= (select malloced_88 (_ bv49 32)) (_ bv0 8)))
(assert (= (select malloced_88 (_ bv50 32)) (_ bv0 8)))
(assert (= (select malloced_88 (_ bv51 32)) (_ bv0 8)))
(assert (= (select malloced_88 (_ bv52 32)) (_ bv1 8)))
(assert (= (select malloced_88 (_ bv53 32)) (_ bv0 8)))
(assert (= (select malloced_88 (_ bv54 32)) (_ bv255 8)))
(assert (= (select malloced_88 (_ bv55 32)) (_ bv255 8)))
(assert (= (select malloced_88 (_ bv56 32)) (_ bv1 8)))
(assert (= (select malloced_88 (_ bv57 32)) (_ bv0 8)))
(assert (= (select malloced_88 (_ bv58 32)) (_ bv0 8)))
(assert (= (select malloced_88 (_ bv59 32)) (_ bv0 8)))
(assert (= (select malloced_88 (_ bv60 32)) (_ bv228 8)))
(assert (= (select malloced_88 (_ bv61 32)) (_ bv248 8)))
(assert (= (select malloced_88 (_ bv62 32)) (_ bv96 8)))
(assert (= (select malloced_88 (_ bv63 32)) (_ bv118 8)))
(assert (= (select malloced_88 (_ bv64 32)) (_ bv228 8)))
(assert (= (select malloced_88 (_ bv65 32)) (_ bv248 8)))
(assert (= (select malloced_88 (_ bv66 32)) (_ bv96 8)))
(assert (= (select malloced_88 (_ bv67 32)) (_ bv118 8)))
(assert (= (select malloced_88 (_ bv68 32)) (_ bv1 8)))
(assert (= (select malloced_88 (_ bv69 32)) (_ bv0 8)))
(assert (= (select malloced_88 (_ bv70 32)) (_ bv0 8)))
(assert (= (select malloced_88 (_ bv71 32)) (_ bv0 8)))
(assert (= (select malloced_88 (_ bv72 32)) (_ bv0 8)))
(assert (= (select malloced_88 (_ bv73 32)) (_ bv0 8)))
(assert (= (select malloced_88 (_ bv74 32)) (_ bv0 8)))
(assert (= (select malloced_88 (_ bv75 32)) (_ bv0 8)))
(assert (= (select malloced_88 (_ bv76 32)) (_ bv1 8)))
(assert (= (select malloced_88 (_ bv77 32)) (_ bv0 8)))
(assert (= (select malloced_88 (_ bv78 32)) (_ bv0 8)))
(assert (= (select malloced_88 (_ bv79 32)) (_ bv0 8)))
(assert (= (select malloced_88 (_ bv80 32)) (_ bv248 8)))
(assert (= (select malloced_88 (_ bv81 32)) (_ bv248 8)))
(assert (= (select malloced_88 (_ bv82 32)) (_ bv96 8)))
(assert (= (select malloced_88 (_ bv83 32)) (_ bv118 8)))
(assert (= (select malloced_88 (_ bv84 32)) (_ bv248 8)))
(assert (= (select malloced_88 (_ bv85 32)) (_ bv248 8)))
(assert (= (select malloced_88 (_ bv86 32)) (_ bv96 8)))
(assert (= (select malloced_88 (_ bv87 32)) (_ bv118 8)))
(assert (= (select malloced_88 (_ bv88 32)) (_ bv0 8)))
(assert (= (select malloced_88 (_ bv89 32)) (_ bv0 8)))
(assert (= (select malloced_88 (_ bv90 32)) (_ bv0 8)))
(assert (= (select malloced_88 (_ bv91 32)) (_ bv64 8)))
(assert (= (select malloced_88 (_ bv92 32)) (_ bv1 8)))
(assert (= (select malloced_88 (_ bv93 32)) (_ bv0 8)))
(assert (= (select malloced_88 (_ bv94 32)) (_ bv0 8)))
(assert (= (select malloced_88 (_ bv95 32)) (_ bv0 8)))
(assert (= (select malloced_88 (_ bv96 32)) (_ bv8 8)))
(assert (= (select malloced_88 (_ bv97 32)) (_ bv249 8)))
(assert (= (select malloced_88 (_ bv98 32)) (_ bv96 8)))
(assert (= (select malloced_88 (_ bv99 32)) (_ bv118 8)))
(assert (= (select malloced_88 (_ bv100 32)) (_ bv8 8)))
(assert (= (select malloced_88 (_ bv101 32)) (_ bv249 8)))
(assert (= (select malloced_88 (_ bv102 32)) (_ bv96 8)))
(assert (= (select malloced_88 (_ bv103 32)) (_ bv118 8)))
(assert (= (select malloced_88 (_ bv104 32)) (_ bv16 8)))
(assert (= (select malloced_88 (_ bv105 32)) (_ bv249 8)))
(assert (= (select malloced_88 (_ bv106 32)) (_ bv96 8)))
(assert (= (select malloced_88 (_ bv107 32)) (_ bv118 8)))
(assert (= (select malloced_88 (_ bv108 32)) (_ bv16 8)))
(assert (= (select malloced_88 (_ bv109 32)) (_ bv249 8)))
(assert (= (select malloced_88 (_ bv110 32)) (_ bv96 8)))
(assert (= (select malloced_88 (_ bv111 32)) (_ bv118 8)))
(assert (= (select malloced_88 (_ bv112 32)) (_ bv24 8)))
(assert (= (select malloced_88 (_ bv113 32)) (_ bv249 8)))
(assert (= (select malloced_88 (_ bv114 32)) (_ bv96 8)))
(assert (= (select malloced_88 (_ bv115 32)) (_ bv118 8)))
(assert (= (select malloced_88 (_ bv116 32)) (_ bv24 8)))
(assert (= (select malloced_88 (_ bv117 32)) (_ bv249 8)))
(assert (= (select malloced_88 (_ bv118 32)) (_ bv96 8)))
(assert (= (select malloced_88 (_ bv119 32)) (_ bv118 8)))
(assert (= (select malloced_88 (_ bv120 32)) (_ bv56 8)))
(assert (= (select malloced_88 (_ bv121 32)) (_ bv200 8)))
(assert (= (select malloced_88 (_ bv122 32)) (_ bv148 8)))
(assert (= (select malloced_88 (_ bv123 32)) (_ bv118 8)))
(assert (= (select malloced_88 (_ bv124 32)) (_ bv88 8)))
(assert (= (select malloced_88 (_ bv125 32)) (_ bv231 8)))
(assert (= (select malloced_88 (_ bv126 32)) (_ bv91 8)))
(assert (= (select malloced_88 (_ bv127 32)) (_ bv162 8)))
(assert (= (select malloced_88 (_ bv128 32)) (_ bv88 8)))
(assert (= (select malloced_88 (_ bv129 32)) (_ bv231 8)))
(assert (= (select malloced_88 (_ bv130 32)) (_ bv91 8)))
(assert (= (select malloced_88 (_ bv131 32)) (_ bv162 8)))
(assert (= (select malloced_88 (_ bv132 32)) (_ bv0 8)))
(assert (= (select malloced_88 (_ bv133 32)) (_ bv0 8)))
(assert (= (select malloced_88 (_ bv134 32)) (_ bv0 8)))
(assert (= (select malloced_88 (_ bv135 32)) (_ bv0 8)))
(assert (= (select malloced_88 (_ bv136 32)) (_ bv1 8)))
(assert (= (select malloced_88 (_ bv137 32)) (_ bv0 8)))
(assert (= (select malloced_88 (_ bv138 32)) (_ bv0 8)))
(assert (= (select malloced_88 (_ bv139 32)) (_ bv0 8)))
(assert (= (select malloced_88 (_ bv140 32)) (_ bv0 8)))
(assert (= (select malloced_88 (_ bv141 32)) (_ bv0 8)))
(assert (= (select malloced_88 (_ bv142 32)) (_ bv0 8)))
(assert (= (select malloced_88 (_ bv143 32)) (_ bv0 8)))
(assert (= (select malloced_88 (_ bv144 32)) (_ bv1 8)))
(assert (= (select malloced_88 (_ bv145 32)) (_ bv0 8)))
(assert (= (select malloced_88 (_ bv146 32)) (_ bv0 8)))
(assert (= (select malloced_88 (_ bv147 32)) (_ bv0 8)))
(assert (= (select malloced_88 (_ bv148 32)) (_ bv60 8)))
(assert (= (select malloced_88 (_ bv149 32)) (_ bv249 8)))
(assert (= (select malloced_88 (_ bv150 32)) (_ bv96 8)))
(assert (= (select malloced_88 (_ bv151 32)) (_ bv118 8)))
(assert (= (select malloced_88 (_ bv152 32)) (_ bv60 8)))
(assert (= (select malloced_88 (_ bv153 32)) (_ bv249 8)))
(assert (= (select malloced_88 (_ bv154 32)) (_ bv96 8)))
(assert (= (select malloced_88 (_ bv155 32)) (_ bv118 8)))
(assert (= (select malloced_88 (_ bv156 32)) (_ bv1 8)))
(assert (= (select malloced_88 (_ bv157 32)) (_ bv0 8)))
(assert (= (select malloced_88 (_ bv158 32)) (_ bv0 8)))
(assert (= (select malloced_88 (_ bv159 32)) (_ bv0 8)))
(assert (= (select malloced_88 (_ bv160 32)) (_ bv0 8)))
(assert (= (select malloced_88 (_ bv161 32)) (_ bv0 8)))
(assert (= (select malloced_88 (_ bv162 32)) (_ bv0 8)))
(assert (= (select malloced_88 (_ bv163 32)) (_ bv0 8)))
(assert (= (select malloced_88 (_ bv164 32)) (_ bv1 8)))
(assert (= (select malloced_88 (_ bv165 32)) (_ bv0 8)))
(assert (= (select malloced_88 (_ bv166 32)) (_ bv0 8)))
(assert (= (select malloced_88 (_ bv167 32)) (_ bv0 8)))
(assert (= (select malloced_88 (_ bv168 32)) (_ bv80 8)))
(assert (= (select malloced_88 (_ bv169 32)) (_ bv249 8)))
(assert (= (select malloced_88 (_ bv170 32)) (_ bv96 8)))
(assert (= (select malloced_88 (_ bv171 32)) (_ bv118 8)))
(assert (= (select malloced_88 (_ bv172 32)) (_ bv80 8)))
(assert (= (select malloced_88 (_ bv173 32)) (_ bv249 8)))
(assert (= (select malloced_88 (_ bv174 32)) (_ bv96 8)))
(assert (= (select malloced_88 (_ bv175 32)) (_ bv118 8)))
(assert (= (select malloced_88 (_ bv176 32)) (_ bv0 8)))
(assert (= (select malloced_88 (_ bv177 32)) (_ bv0 8)))
(assert (= (select malloced_88 (_ bv178 32)) (_ bv0 8)))
(assert (= (select malloced_88 (_ bv179 32)) (_ bv0 8)))
(assert (= (select malloced_88 (_ bv180 32)) (_ bv0 8)))
(assert (= (select malloced_88 (_ bv181 32)) (_ bv0 8)))
(assert (= (select malloced_88 (_ bv182 32)) (_ bv0 8)))
(assert (= (select malloced_88 (_ bv183 32)) (_ bv0 8)))
(assert (= (select malloced_88 (_ bv184 32)) (_ bv0 8)))
(assert (= (select malloced_88 (_ bv185 32)) (_ bv0 8)))
(assert (= (select malloced_88 (_ bv186 32)) (_ bv0 8)))
(assert (= (select malloced_88 (_ bv187 32)) (_ bv0 8)))
(assert (= (select malloced_88 (_ bv188 32)) (_ bv0 8)))
(assert (= (select malloced_88 (_ bv189 32)) (_ bv0 8)))
(assert (= (select malloced_88 (_ bv190 32)) (_ bv0 8)))
(assert (= (select malloced_88 (_ bv191 32)) (_ bv0 8)))
(assert (= (select malloced_88 (_ bv192 32)) (_ bv0 8)))
(assert (= (select malloced_88 (_ bv193 32)) (_ bv0 8)))
(assert (= (select malloced_88 (_ bv194 32)) (_ bv0 8)))
(assert (= (select malloced_88 (_ bv195 32)) (_ bv0 8)))
(assert (= (select malloced_88 (_ bv196 32)) (_ bv0 8)))
(assert (= (select malloced_88 (_ bv197 32)) (_ bv0 8)))
(assert (= (select malloced_88 (_ bv198 32)) (_ bv0 8)))
(assert (= (select malloced_88 (_ bv199 32)) (_ bv0 8)))
(assert (= (select malloced_88 (_ bv200 32)) (_ bv0 8)))
(assert (= (select malloced_88 (_ bv201 32)) (_ bv0 8)))
(assert (= (select malloced_88 (_ bv202 32)) (_ bv0 8)))
(assert (= (select malloced_88 (_ bv203 32)) (_ bv0 8)))
(assert (= (select malloced_88 (_ bv204 32)) (_ bv0 8)))
(assert (= (select malloced_88 (_ bv205 32)) (_ bv0 8)))
(assert (= (select malloced_88 (_ bv206 32)) (_ bv0 8)))
(assert (= (select malloced_88 (_ bv207 32)) (_ bv0 8)))
(assert (= (select malloced_88 (_ bv208 32)) (_ bv0 8)))
(assert (= (select malloced_88 (_ bv209 32)) (_ bv0 8)))
(assert (= (select malloced_88 (_ bv210 32)) (_ bv0 8)))
(assert (= (select malloced_88 (_ bv211 32)) (_ bv0 8)))
(assert (= (select malloced_88 (_ bv212 32)) (_ bv0 8)))
(assert (= (select malloced_88 (_ bv213 32)) (_ bv0 8)))
(assert (= (select malloced_88 (_ bv214 32)) (_ bv0 8)))
(assert (= (select malloced_88 (_ bv215 32)) (_ bv0 8)))
(assert (= (select malloced_88 (_ bv216 32)) (_ bv0 8)))
(assert (= (select malloced_88 (_ bv217 32)) (_ bv0 8)))
(assert (= (select malloced_88 (_ bv218 32)) (_ bv0 8)))
(assert (= (select malloced_88 (_ bv219 32)) (_ bv0 8)))
(assert (= (select malloced_88 (_ bv220 32)) (_ bv0 8)))
(assert (= (select malloced_88 (_ bv221 32)) (_ bv0 8)))
(assert (= (select malloced_88 (_ bv222 32)) (_ bv0 8)))
(assert (= (select malloced_88 (_ bv223 32)) (_ bv0 8)))
(assert (= (select malloced_88 (_ bv224 32)) (_ bv0 8)))
(assert (= (select malloced_88 (_ bv225 32)) (_ bv0 8)))
(assert (= (select malloced_88 (_ bv226 32)) (_ bv0 8)))
(assert (= (select malloced_88 (_ bv227 32)) (_ bv0 8)))
(assert (= (select malloced_88 (_ bv228 32)) (_ bv0 8)))
(assert (= (select malloced_88 (_ bv229 32)) (_ bv0 8)))
(assert (= (select malloced_88 (_ bv230 32)) (_ bv0 8)))
(assert (= (select malloced_88 (_ bv231 32)) (_ bv0 8)))
(assert (= (select malloced_88 (_ bv232 32)) (_ bv0 8)))
(assert (= (select malloced_88 (_ bv233 32)) (_ bv0 8)))
(assert (= (select malloced_88 (_ bv234 32)) (_ bv0 8)))
(assert (= (select malloced_88 (_ bv235 32)) (_ bv0 8)))
(assert (= (select malloced_88 (_ bv236 32)) (_ bv0 8)))
(assert (= (select malloced_88 (_ bv237 32)) (_ bv0 8)))
(assert (= (select malloced_88 (_ bv238 32)) (_ bv0 8)))
(assert (= (select malloced_88 (_ bv239 32)) (_ bv0 8)))
(assert (= (select malloced_88 (_ bv240 32)) (_ bv0 8)))
(assert (= (select malloced_88 (_ bv241 32)) (_ bv0 8)))
(assert (= (select malloced_88 (_ bv242 32)) (_ bv0 8)))
(assert (= (select malloced_88 (_ bv243 32)) (_ bv0 8)))
(assert (= (select malloced_88 (_ bv244 32)) (_ bv0 8)))
(assert (= (select malloced_88 (_ bv245 32)) (_ bv0 8)))
(assert (= (select malloced_88 (_ bv246 32)) (_ bv0 8)))
(assert (= (select malloced_88 (_ bv247 32)) (_ bv0 8)))
(assert (= (select malloced_88 (_ bv248 32)) (_ bv0 8)))
(assert (= (select malloced_88 (_ bv249 32)) (_ bv244 8)))
(assert (= (select malloced_88 (_ bv250 32)) (_ bv104 8)))
(assert (= (select malloced_88 (_ bv251 32)) (_ bv158 8)))
(assert (= (select malloced_88 (_ bv252 32)) (_ bv0 8)))
(assert (= (select malloced_88 (_ bv253 32)) (_ bv0 8)))
(assert (= (select malloced_88 (_ bv254 32)) (_ bv0 8)))
(assert (= (select malloced_88 (_ bv255 32)) (_ bv0 8)))
(assert (= (select malloced_88 (_ bv256 32)) (_ bv0 8)))
(assert (= (select malloced_88 (_ bv257 32)) (_ bv0 8)))
(assert (= (select malloced_88 (_ bv258 32)) (_ bv0 8)))
(assert (= (select malloced_88 (_ bv259 32)) (_ bv0 8)))
(assert (= (select malloced_88 (_ bv260 32)) (_ bv0 8)))
(assert (= (select malloced_88 (_ bv261 32)) (_ bv0 8)))
(assert (= (select malloced_88 (_ bv262 32)) (_ bv0 8)))
(assert (= (select malloced_88 (_ bv263 32)) (_ bv0 8)))
(assert (= (select malloced_88 (_ bv264 32)) (_ bv0 8)))
(assert (= (select malloced_88 (_ bv265 32)) (_ bv0 8)))
(assert (= (select malloced_88 (_ bv266 32)) (_ bv0 8)))
(assert (= (select malloced_88 (_ bv267 32)) (_ bv0 8)))
(assert (= (select malloced_88 (_ bv268 32)) (_ bv0 8)))
(assert (= (select malloced_88 (_ bv269 32)) (_ bv0 8)))
(assert (= (select malloced_88 (_ bv270 32)) (_ bv0 8)))
(assert (= (select malloced_88 (_ bv271 32)) (_ bv0 8)))
(assert (= (select malloced_88 (_ bv272 32)) (_ bv0 8)))
(assert (= (select malloced_88 (_ bv273 32)) (_ bv0 8)))
(assert (= (select malloced_88 (_ bv274 32)) (_ bv0 8)))
(assert (= (select malloced_88 (_ bv275 32)) (_ bv0 8)))
(assert (= (select malloced_88 (_ bv276 32)) (_ bv0 8)))
(assert (= (select malloced_88 (_ bv277 32)) (_ bv0 8)))
(assert (= (select malloced_88 (_ bv278 32)) (_ bv0 8)))
(assert (= (select malloced_88 (_ bv279 32)) (_ bv0 8)))
(assert (= (select malloced_88 (_ bv280 32)) (_ bv0 8)))
(assert (= (select malloced_88 (_ bv281 32)) (_ bv0 8)))
(assert (= (select malloced_88 (_ bv282 32)) (_ bv0 8)))
(assert (= (select malloced_88 (_ bv283 32)) (_ bv0 8)))
(assert (= (select malloced_88 (_ bv284 32)) (_ bv0 8)))
(assert (= (select malloced_88 (_ bv285 32)) (_ bv0 8)))
(assert (= (select malloced_88 (_ bv286 32)) (_ bv0 8)))
(assert (= (select malloced_88 (_ bv287 32)) (_ bv0 8)))
(assert (= (select malloced_88 (_ bv288 32)) (_ bv0 8)))
(assert (= (select malloced_88 (_ bv289 32)) (_ bv0 8)))
(assert (= (select malloced_88 (_ bv290 32)) (_ bv0 8)))
(assert (= (select malloced_88 (_ bv291 32)) (_ bv0 8)))
(assert (= (select malloced_88 (_ bv292 32)) (_ bv0 8)))
(assert (= (select malloced_88 (_ bv293 32)) (_ bv0 8)))
(assert (= (select malloced_88 (_ bv294 32)) (_ bv0 8)))
(assert (= (select malloced_88 (_ bv295 32)) (_ bv0 8)))
(assert (= (select malloced_88 (_ bv296 32)) (_ bv0 8)))
(assert (= (select malloced_88 (_ bv297 32)) (_ bv0 8)))
(assert (= (select malloced_88 (_ bv298 32)) (_ bv0 8)))
(assert (= (select malloced_88 (_ bv299 32)) (_ bv0 8)))
(assert (= (select malloced_88 (_ bv300 32)) (_ bv0 8)))
(assert (= (select malloced_88 (_ bv301 32)) (_ bv0 8)))
(assert (= (select malloced_88 (_ bv302 32)) (_ bv0 8)))
(assert (= (select malloced_88 (_ bv303 32)) (_ bv0 8)))
(assert (= (select malloced_88 (_ bv304 32)) (_ bv0 8)))
(assert (= (select malloced_88 (_ bv305 32)) (_ bv0 8)))
(assert (= (select malloced_88 (_ bv306 32)) (_ bv0 8)))
(assert (= (select malloced_88 (_ bv307 32)) (_ bv0 8)))
(assert (= (select malloced_88 (_ bv308 32)) (_ bv0 8)))
(assert (= (select malloced_88 (_ bv309 32)) (_ bv0 8)))
(assert (= (select malloced_88 (_ bv310 32)) (_ bv0 8)))
(assert (= (select malloced_88 (_ bv311 32)) (_ bv0 8)))
(assert (= (select malloced_88 (_ bv312 32)) (_ bv0 8)))
(assert (= (select malloced_88 (_ bv313 32)) (_ bv0 8)))
(assert (= (select malloced_88 (_ bv314 32)) (_ bv0 8)))
(assert (= (select malloced_88 (_ bv315 32)) (_ bv0 8)))
(assert (= (select malloced_88 (_ bv316 32)) (_ bv0 8)))
(assert (= (select malloced_88 (_ bv317 32)) (_ bv0 8)))
(assert (= (select malloced_88 (_ bv318 32)) (_ bv0 8)))
(assert (= (select malloced_88 (_ bv319 32)) (_ bv0 8)))
(assert (= (select malloced_88 (_ bv320 32)) (_ bv0 8)))
(assert (= (select malloced_88 (_ bv321 32)) (_ bv0 8)))
(assert (= (select malloced_88 (_ bv322 32)) (_ bv0 8)))
(assert (= (select malloced_88 (_ bv323 32)) (_ bv0 8)))
(assert (= (select malloced_88 (_ bv324 32)) (_ bv0 8)))
(assert (= (select malloced_88 (_ bv325 32)) (_ bv0 8)))
(assert (= (select malloced_88 (_ bv326 32)) (_ bv0 8)))
(assert (= (select malloced_88 (_ bv327 32)) (_ bv0 8)))
(assert (= (select malloced_88 (_ bv328 32)) (_ bv0 8)))
(assert (= (select malloced_88 (_ bv329 32)) (_ bv0 8)))
(assert (= (select malloced_88 (_ bv330 32)) (_ bv0 8)))
(assert (= (select malloced_88 (_ bv331 32)) (_ bv0 8)))
(assert (= (select malloced_88 (_ bv332 32)) (_ bv0 8)))
(assert (= (select malloced_88 (_ bv333 32)) (_ bv0 8)))
(assert (= (select malloced_88 (_ bv334 32)) (_ bv0 8)))
(assert (= (select malloced_88 (_ bv335 32)) (_ bv0 8)))
(assert (= (select malloced_88 (_ bv336 32)) (_ bv0 8)))
(assert (= (select malloced_88 (_ bv337 32)) (_ bv0 8)))
(assert (= (select malloced_88 (_ bv338 32)) (_ bv0 8)))
(assert (= (select malloced_88 (_ bv339 32)) (_ bv0 8)))
(assert (= (select malloced_88 (_ bv340 32)) (_ bv0 8)))
(assert (= (select malloced_88 (_ bv341 32)) (_ bv0 8)))
(assert (= (select malloced_88 (_ bv342 32)) (_ bv0 8)))
(assert (= (select malloced_88 (_ bv343 32)) (_ bv0 8)))
(assert (= (select malloced_88 (_ bv344 32)) (_ bv0 8)))
(assert (= (select malloced_88 (_ bv345 32)) (_ bv0 8)))
(assert (= (select malloced_88 (_ bv346 32)) (_ bv0 8)))
(assert (= (select malloced_88 (_ bv347 32)) (_ bv0 8)))
(assert (= (select malloced_88 (_ bv348 32)) (_ bv0 8)))
(assert (= (select malloced_88 (_ bv349 32)) (_ bv0 8)))
(assert (= (select malloced_88 (_ bv350 32)) (_ bv0 8)))
(assert (= (select malloced_88 (_ bv351 32)) (_ bv0 8)))
(assert (= (select malloced_88 (_ bv352 32)) (_ bv0 8)))
(assert (= (select malloced_88 (_ bv353 32)) (_ bv0 8)))
(assert (= (select malloced_88 (_ bv354 32)) (_ bv0 8)))
(assert (= (select malloced_88 (_ bv355 32)) (_ bv0 8)))
(assert (= (select malloced_88 (_ bv356 32)) (_ bv0 8)))
(assert (= (select malloced_88 (_ bv357 32)) (_ bv0 8)))
(assert (= (select malloced_88 (_ bv358 32)) (_ bv0 8)))
(assert (= (select malloced_88 (_ bv359 32)) (_ bv0 8)))
(assert (= (select malloced_88 (_ bv360 32)) (_ bv0 8)))
(assert (= (select malloced_88 (_ bv361 32)) (_ bv0 8)))
(assert (= (select malloced_88 (_ bv362 32)) (_ bv0 8)))
(assert (= (select malloced_88 (_ bv363 32)) (_ bv0 8)))
(assert (= (select malloced_88 (_ bv364 32)) (_ bv0 8)))
(assert (= (select malloced_88 (_ bv365 32)) (_ bv0 8)))
(assert (= (select malloced_88 (_ bv366 32)) (_ bv0 8)))
(assert (= (select malloced_88 (_ bv367 32)) (_ bv0 8)))
(assert (= (select malloced_88 (_ bv368 32)) (_ bv0 8)))
(assert (= (select malloced_88 (_ bv369 32)) (_ bv0 8)))
(assert (= (select malloced_88 (_ bv370 32)) (_ bv0 8)))
(assert (= (select malloced_88 (_ bv371 32)) (_ bv0 8)))
(assert (= (select malloced_88 (_ bv372 32)) (_ bv0 8)))
(assert (= (select malloced_88 (_ bv373 32)) (_ bv0 8)))
(assert (= (select malloced_88 (_ bv374 32)) (_ bv0 8)))
(assert (= (select malloced_88 (_ bv375 32)) (_ bv0 8)))
(assert (= (select malloced_88 (_ bv376 32)) (_ bv0 8)))
(assert (= (select malloced_88 (_ bv377 32)) (_ bv0 8)))
(assert (= (select malloced_88 (_ bv378 32)) (_ bv0 8)))
(assert (= (select malloced_88 (_ bv379 32)) (_ bv0 8)))
(assert (= (select malloced_88 (_ bv380 32)) (_ bv0 8)))
(assert (= (select malloced_88 (_ bv381 32)) (_ bv0 8)))
(assert (= (select malloced_88 (_ bv382 32)) (_ bv0 8)))
(assert (= (select malloced_88 (_ bv383 32)) (_ bv0 8)))
(assert (= (select malloced_88 (_ bv384 32)) (_ bv0 8)))
(assert (= (select malloced_88 (_ bv385 32)) (_ bv0 8)))
(assert (= (select malloced_88 (_ bv386 32)) (_ bv0 8)))
(assert (= (select malloced_88 (_ bv387 32)) (_ bv0 8)))
(assert (= (select malloced_88 (_ bv388 32)) (_ bv0 8)))
(assert (= (select malloced_88 (_ bv389 32)) (_ bv0 8)))
(assert (= (select malloced_88 (_ bv390 32)) (_ bv0 8)))
(assert (= (select malloced_88 (_ bv391 32)) (_ bv0 8)))
(assert (= (select malloced_88 (_ bv392 32)) (_ bv0 8)))
(assert (= (select malloced_88 (_ bv393 32)) (_ bv0 8)))
(assert (= (select malloced_88 (_ bv394 32)) (_ bv0 8)))
(assert (= (select malloced_88 (_ bv395 32)) (_ bv0 8)))
(assert (= (select malloced_88 (_ bv396 32)) (_ bv0 8)))
(assert (= (select malloced_88 (_ bv397 32)) (_ bv0 8)))
(assert (= (select malloced_88 (_ bv398 32)) (_ bv0 8)))
(assert (= (select malloced_88 (_ bv399 32)) (_ bv0 8)))
(assert (= (select malloced_88 (_ bv400 32)) (_ bv0 8)))
(assert (= (select malloced_88 (_ bv401 32)) (_ bv0 8)))
(assert (= (select malloced_88 (_ bv402 32)) (_ bv0 8)))
(assert (= (select malloced_88 (_ bv403 32)) (_ bv0 8)))
(assert (= (select malloced_88 (_ bv404 32)) (_ bv0 8)))
(assert (= (select malloced_88 (_ bv405 32)) (_ bv0 8)))
(assert (= (select malloced_88 (_ bv406 32)) (_ bv0 8)))
(assert (= (select malloced_88 (_ bv407 32)) (_ bv0 8)))
(assert (= (select malloced_88 (_ bv408 32)) (_ bv0 8)))
(assert (= (select malloced_88 (_ bv409 32)) (_ bv0 8)))
(assert (= (select malloced_88 (_ bv410 32)) (_ bv0 8)))
(assert (= (select malloced_88 (_ bv411 32)) (_ bv0 8)))
(assert (= (select malloced_88 (_ bv412 32)) (_ bv0 8)))
(assert (= (select malloced_88 (_ bv413 32)) (_ bv0 8)))
(assert (= (select malloced_88 (_ bv414 32)) (_ bv0 8)))
(assert (= (select malloced_88 (_ bv415 32)) (_ bv0 8)))
(assert (= (select malloced_88 (_ bv416 32)) (_ bv0 8)))
(assert (= (select malloced_88 (_ bv417 32)) (_ bv0 8)))
(assert (= (select malloced_88 (_ bv418 32)) (_ bv0 8)))
(assert (= (select malloced_88 (_ bv419 32)) (_ bv0 8)))
(assert (= (select malloced_88 (_ bv420 32)) (_ bv0 8)))
(assert (= (select malloced_88 (_ bv421 32)) (_ bv0 8)))
(assert (= (select malloced_88 (_ bv422 32)) (_ bv0 8)))
(assert (= (select malloced_88 (_ bv423 32)) (_ bv0 8)))
(assert (= (select malloced_88 (_ bv424 32)) (_ bv0 8)))
(assert (= (select malloced_88 (_ bv425 32)) (_ bv0 8)))
(assert (= (select malloced_88 (_ bv426 32)) (_ bv0 8)))
(assert (= (select malloced_88 (_ bv427 32)) (_ bv0 8)))
(assert (= (select malloced_88 (_ bv428 32)) (_ bv0 8)))
(assert (= (select malloced_88 (_ bv429 32)) (_ bv0 8)))
(assert (= (select malloced_88 (_ bv430 32)) (_ bv0 8)))
(assert (= (select malloced_88 (_ bv431 32)) (_ bv0 8)))
(assert (= (select malloced_88 (_ bv432 32)) (_ bv0 8)))
(assert (= (select malloced_88 (_ bv433 32)) (_ bv0 8)))
(assert (= (select malloced_88 (_ bv434 32)) (_ bv0 8)))
(assert (= (select malloced_88 (_ bv435 32)) (_ bv0 8)))
(assert (= (select malloced_88 (_ bv436 32)) (_ bv0 8)))
(assert (= (select malloced_88 (_ bv437 32)) (_ bv0 8)))
(assert (= (select malloced_88 (_ bv438 32)) (_ bv0 8)))
(assert (= (select malloced_88 (_ bv439 32)) (_ bv0 8)))
(assert (= (select malloced_88 (_ bv440 32)) (_ bv0 8)))
(assert (= (select malloced_88 (_ bv441 32)) (_ bv0 8)))
(assert (= (select malloced_88 (_ bv442 32)) (_ bv0 8)))
(assert (= (select malloced_88 (_ bv443 32)) (_ bv0 8)))
(assert (= (select malloced_88 (_ bv444 32)) (_ bv0 8)))
(assert (= (select malloced_88 (_ bv445 32)) (_ bv0 8)))
(assert (= (select malloced_88 (_ bv446 32)) (_ bv0 8)))
(assert (= (select malloced_88 (_ bv447 32)) (_ bv0 8)))
(assert (= (select malloced_88 (_ bv448 32)) (_ bv0 8)))
(assert (= (select malloced_88 (_ bv449 32)) (_ bv0 8)))
(assert (= (select malloced_88 (_ bv450 32)) (_ bv0 8)))
(assert (= (select malloced_88 (_ bv451 32)) (_ bv0 8)))
(assert (= (select malloced_88 (_ bv452 32)) (_ bv0 8)))
(assert (= (select malloced_88 (_ bv453 32)) (_ bv0 8)))
(assert (= (select malloced_88 (_ bv454 32)) (_ bv0 8)))
(assert (= (select malloced_88 (_ bv455 32)) (_ bv0 8)))
(assert (= (select malloced_88 (_ bv456 32)) (_ bv0 8)))
(assert (= (select malloced_88 (_ bv457 32)) (_ bv0 8)))
(assert (= (select malloced_88 (_ bv458 32)) (_ bv0 8)))
(assert (= (select malloced_88 (_ bv459 32)) (_ bv0 8)))
(assert (= (select malloced_88 (_ bv460 32)) (_ bv0 8)))
(assert (= (select malloced_88 (_ bv461 32)) (_ bv0 8)))
(assert (= (select malloced_88 (_ bv462 32)) (_ bv0 8)))
(assert (= (select malloced_88 (_ bv463 32)) (_ bv0 8)))
(assert (= (select malloced_88 (_ bv464 32)) (_ bv0 8)))
(assert (= (select malloced_88 (_ bv465 32)) (_ bv0 8)))
(assert (= (select malloced_88 (_ bv466 32)) (_ bv0 8)))
(assert (= (select malloced_88 (_ bv467 32)) (_ bv0 8)))
(assert (= (select malloced_88 (_ bv468 32)) (_ bv0 8)))
(assert (= (select malloced_88 (_ bv469 32)) (_ bv0 8)))
(assert (= (select malloced_88 (_ bv470 32)) (_ bv0 8)))
(assert (= (select malloced_88 (_ bv471 32)) (_ bv0 8)))
(assert (= (select malloced_88 (_ bv472 32)) (_ bv1 8)))
(assert (= (select malloced_88 (_ bv473 32)) (_ bv0 8)))
(assert (= (select malloced_88 (_ bv474 32)) (_ bv0 8)))
(assert (= (select malloced_88 (_ bv475 32)) (_ bv0 8)))
(assert (= (select malloced_88 (_ bv476 32)) (_ bv0 8)))
(assert (= (select malloced_88 (_ bv477 32)) (_ bv0 8)))
(assert (= (select malloced_88 (_ bv478 32)) (_ bv0 8)))
(assert (= (select malloced_88 (_ bv479 32)) (_ bv0 8)))
(assert (= (select malloced_88 (_ bv480 32)) (_ bv1 8)))
(assert (= (select malloced_88 (_ bv481 32)) (_ bv0 8)))
(assert (= (select malloced_88 (_ bv482 32)) (_ bv0 8)))
(assert (= (select malloced_88 (_ bv483 32)) (_ bv0 8)))
(assert (= (select malloced_88 (_ bv484 32)) (_ bv140 8)))
(assert (= (select malloced_88 (_ bv485 32)) (_ bv250 8)))
(assert (= (select malloced_88 (_ bv486 32)) (_ bv96 8)))
(assert (= (select malloced_88 (_ bv487 32)) (_ bv118 8)))
(assert (= (select malloced_88 (_ bv488 32)) (_ bv140 8)))
(assert (= (select malloced_88 (_ bv489 32)) (_ bv250 8)))
(assert (= (select malloced_88 (_ bv490 32)) (_ bv96 8)))
(assert (= (select malloced_88 (_ bv491 32)) (_ bv118 8)))
(assert (= (select malloced_88 (_ bv492 32)) (_ bv1 8)))
(assert (= (select malloced_88 (_ bv493 32)) (_ bv0 8)))
(assert (= (select malloced_88 (_ bv494 32)) (_ bv0 8)))
(assert (= (select malloced_88 (_ bv495 32)) (_ bv0 8)))
(assert (= (select malloced_88 (_ bv496 32)) (_ bv0 8)))
(assert (= (select malloced_88 (_ bv497 32)) (_ bv0 8)))
(assert (= (select malloced_88 (_ bv498 32)) (_ bv0 8)))
(assert (= (select malloced_88 (_ bv499 32)) (_ bv0 8)))
(assert (= (select malloced_88 (_ bv500 32)) (_ bv1 8)))
(assert (= (select malloced_88 (_ bv501 32)) (_ bv0 8)))
(assert (= (select malloced_88 (_ bv502 32)) (_ bv0 8)))
(assert (= (select malloced_88 (_ bv503 32)) (_ bv0 8)))
(assert (= (select malloced_88 (_ bv504 32)) (_ bv160 8)))
(assert (= (select malloced_88 (_ bv505 32)) (_ bv250 8)))
(assert (= (select malloced_88 (_ bv506 32)) (_ bv96 8)))
(assert (= (select malloced_88 (_ bv507 32)) (_ bv118 8)))
(assert (= (select malloced_88 (_ bv508 32)) (_ bv160 8)))
(assert (= (select malloced_88 (_ bv509 32)) (_ bv250 8)))
(assert (= (select malloced_88 (_ bv510 32)) (_ bv96 8)))
(assert (= (select malloced_88 (_ bv511 32)) (_ bv118 8)))
(assert (let ((?v_0 (concat (_ bv0 16) (concat (select sb (_ bv57 32)) (select sb (_ bv56 32)))))) (let ((?v_1 (store (store (store (store malloced_88 (_ bv44 32) ((_ extract 7 0) ?v_0)) (bvadd (_ bv44 32) (_ bv1 32)) ((_ extract 15 8) ?v_0)) (bvadd (_ bv44 32) (_ bv2 32)) ((_ extract 23 16) ?v_0)) (bvadd (_ bv44 32) (_ bv3 32)) ((_ extract 31 24) ?v_0)))) (not (not (= (concat (concat (concat (select ?v_1 (_ bv47 32)) (select ?v_1 (_ bv46 32))) (select ?v_1 (_ bv45 32))) (select ?v_1 (_ bv44 32))) (_ bv61267 32)))))))
(check-sat)
(exit)
